--- Job or_report_1.6_mA_5e.gms Start 06/20/20 12:50:14 28.2.0 r750fa45 WEX-WEI x86 64bit/MS Windows
--- GAMS Parameters defined
    Input D:\Onedrive\Documents\GAMSStudio\or_report_1.6_model_A_multinode\5nodes\or_report_1.6_mA_5e.gms
    PageSize 0
    ScrDir D:\Onedrive\Documents\GAMSStudio\or_report_1.6_model_A_multinode\5nodes\225a\
    SysDir D:\GAMS\win64\28.2\
    LogOption 3
    ErrMsg 1
    ErrorLog 99
    IDE 1
    LstTitleLeftAligned 1
GAMS 28.2.0   Copyright (C) 1987-2019 GAMS Development. All rights reserved
Licensee: GAMS Development Corporation, USA              G871201/0000CA-ANY
          Free Demo, +1 202-342-0180, support@gams.com, www.gams.com DC0000
--- Starting compilation
--- or_report_1.6_mA_5e.gms(9) 3 Mb
--- . or_report.1.6_cost_mA_5e.csv(6) 3 Mb
--- or_report_1.6_mA_5e.gms(14) 3 Mb
--- . or_report.1.6_maxflow_mA_5e.csv(6) 3 Mb
--- or_report_1.6_mA_5e.gms(120) 3 Mb
--- call gdxdump or_report.1.6_mA_5e.gdx symb=cost CSVSetText format=csv header = "cost(iter)">> or_report.1.6_mA_5e_out_cost.csv
--- or_report_1.6_mA_5e.gms(121) 3 Mb
--- call gdxdump or_report.1.6_mA_5e.gdx symb=isfeasible CSVSetText format=csv header = "isfeasible(iter)">> or_report.1.6_mA_5e_out_isfeasible.csv
--- or_report_1.6_mA_5e.gms(122) 3 Mb
--- call gdxdump or_report.1.6_mA_5e.gdx symb=remain CSVSetText format=csv header ="remain(iter)">> or_report.1.6_mA_5e_out_remain.csv
--- or_report_1.6_mA_5e.gms(123) 3 Mb
--- call gdxdump or_report.1.6_mA_5e.gdx symb=remainrate CSVSetText format=csv header = "remainrate(iter)">> or_report.1.6_mA_5e_out_remainrate.csv
--- or_report_1.6_mA_5e.gms(124) 3 Mb
--- Starting execution: elapsed 0:00:01.797
--- Generating LP model demo_1
--- or_report_1.6_mA_5e.gms(94) 4 Mb
---   32 rows  27 columns  89 non-zeroes
--- Executing CPLEX: elapsed 0:00:01.802

IBM ILOG CPLEX   28.2.0 r750fa45 Released Aug 19, 2019 WEI x86 64bit/MS Window
Cplex 12.9.0.0

Reading data...
Starting Cplex...
Space for names approximately 0.00 Mb
Use option 'names no' to turn use of names off
CPXPARAM_Advance                                 0
CPXPARAM_Threads                                 1
CPXPARAM_Parallel                                1
CPXPARAM_Simplex_Limits_Iterations               2000000000
CPXPARAM_TimeLimit                               1000
CPXPARAM_Tune_TimeLimit                          200
Tried aggregator 1 time.
LP Presolve eliminated 27 rows and 8 columns.
Reduced LP has 5 rows, 19 columns, and 38 nonzeros.
Presolve time = 0.00 sec. (0.02 ticks)

Iteration log . . .
Iteration:     1   Dual infeasibility =             0.015000
Iteration:     5   Dual objective     =            17.200000
LP status(1): optimal
Cplex Time: 0.00sec (det. 0.04 ticks)

Optimal solution found.
Objective :          26.542000

--- Restarting execution
--- or_report_1.6_mA_5e.gms(94) 2 Mb
--- Reading solution for model demo_1
--- Executing after solve: elapsed 0:00:01.887
--- or_report_1.6_mA_5e.gms(103) 3 Mb
*** Status: Normal completion
--- Job or_report_1.6_mA_5e.gms Stop 06/20/20 12:50:16 elapsed 0:00:01.887
